38
75
52	4
51	2
50	3
49	3
48	3
47	1
46	2
45	2
44	1
43	2
42	3
41	4
40	1
39	5
38	3
37	2
36	1
35	2
34	2
33	5
32	2
31	3
30	4
29	3
28	4
27	6
26	4
25	1
24	2
23	2
22	2
21	1
20	3
19	2
18	3
17	1
16	1
15	5
